Gurobi Optimizer version 9.1.2 build v9.1.2rc0 (linux64)
Thread count: 36 physical cores, 72 logical processors, using up to 32 threads
Optimize a model with 12 rows, 57 columns and 590 nonzeros
Model fingerprint: 0xf32eec78
Model has 47 quadratic constraints
Coefficient statistics:
  Matrix range     [2e-05, 3e+00]
  QMatrix range    [1e+00, 1e+00]
  QLMatrix range   [1e+00, 1e+00]
  Objective range  [8e-03, 7e-01]
  Bounds range     [1e+00, 1e+00]
  RHS range        [1e+00, 1e+00]
Presolve removed 9 rows and 0 columns

Continuous model is non-convex -- solving as a MIP.

Presolve removed 9 rows and 0 columns
Presolve time: 0.00s
Presolved: 189 rows, 57 columns, 443 nonzeros
Presolved model has 47 bilinear constraint(s)
Variable types: 57 continuous, 0 integer (0 binary)

Root relaxation: objective -1.743721e+00, 44 iterations, 0.00 seconds

    Nodes    |    Current Node    |     Objective Bounds      |     Work
 Expl Unexpl |  Obj  Depth IntInf | Incumbent    BestBd   Gap | It/Node Time

     0     0   -1.74372    0   38          -   -1.74372      -     -    0s
H    0     0                       0.6147548   -1.74372   384%     -    0s
     0     0   -1.64739    0    1    0.61475   -1.64739   368%     -    0s
H    0     0                      -1.6450460   -1.64739  0.14%     -    0s
     0     0     cutoff    0        -1.64505   -1.64505  0.00%     -    0s

Cutting planes:
  RLT: 25
  BQP: 3

Explored 1 nodes (76 simplex iterations) in 0.01 seconds
Thread count was 32 (of 72 available processors)

Solution count 2: -1.64505 0.614755 
No other solutions better than -1.64505

Optimal solution found (tolerance 1.00e-04)
Best objective -1.645045978473e+00, best bound -1.645045978473e+00, gap 0.0000%

User-callback calls 78, time in user-callback 0.00 sec
Gurobi Optimizer version 9.1.2 build v9.1.2rc0 (linux64)
Thread count: 36 physical cores, 72 logical processors, using up to 32 threads
Optimize a model with 24 rows, 125 columns and 2580 nonzeros
Model fingerprint: 0x9b276773
Model has 105 quadratic constraints
Coefficient statistics:
  Matrix range     [5e-06, 5e+01]
  QMatrix range    [1e+00, 1e+00]
  QLMatrix range   [1e+00, 1e+00]
  Objective range  [7e-03, 1e+00]
  Bounds range     [1e+00, 1e+00]
  RHS range        [1e+00, 1e+00]
Presolve removed 10 rows and 0 columns

Continuous model is non-convex -- solving as a MIP.

Presolve removed 10 rows and 0 columns
Presolve time: 0.00s
Presolved: 429 rows, 125 columns, 2142 nonzeros
Presolved model has 105 bilinear constraint(s)
Variable types: 125 continuous, 0 integer (0 binary)

Root relaxation: objective -4.494379e+00, 139 iterations, 0.00 seconds

    Nodes    |    Current Node    |     Objective Bounds      |     Work
 Expl Unexpl |  Obj  Depth IntInf | Incumbent    BestBd   Gap | It/Node Time

     0     0   -4.49438    0   75          -   -4.49438      -     -    0s
H    0     0                       0.4052833   -4.49438  1209%     -    0s
     0     0   -3.52483    0   95    0.40528   -3.52483   970%     -    0s
H    0     0                      -0.6725550   -3.52483   424%     -    0s
     0     0   -3.45658    0   88   -0.67256   -3.45658   414%     -    0s
     0     0   -3.28231    0   92   -0.67256   -3.28231   388%     -    0s
H    0     0                      -1.4766097   -3.28231   122%     -    0s
H    0     0                      -1.4766097   -3.28231   122%     -    0s
     0     0   -3.27979    0   91   -1.47661   -3.27979   122%     -    0s
     0     0   -3.25264    0   92   -1.47661   -3.25264   120%     -    0s
     0     0   -3.24712    0   93   -1.47661   -3.24712   120%     -    0s
     0     0   -3.23701    0   95   -1.47661   -3.23701   119%     -    0s
     0     0   -3.23630    0   95   -1.47661   -3.23630   119%     -    0s
     0     0   -3.22864    0   69   -1.47661   -3.22864   119%     -    0s
     0     0   -3.22832    0   79   -1.47661   -3.22832   119%     -    0s
     0     0   -3.22737    0   76   -1.47661   -3.22737   119%     -    0s
     0     0   -3.22721    0   77   -1.47661   -3.22721   119%     -    0s
     0     0   -3.22688    0   80   -1.47661   -3.22688   119%     -    0s
H    0     0                      -2.0901207   -3.22688  54.4%     -    0s
H    0     0                      -2.1001064   -3.22688  53.7%     -    0s
H    0     0                      -2.2381300   -3.22688  44.2%     -    0s
H    0     0                      -2.2834369   -3.22688  41.3%     -    0s
     0     2   -3.22688    0   80   -2.28344   -3.22688  41.3%     -    0s
*  524   418              19      -2.5042253   -2.87134  14.7%  29.6    0s
*  526   418              20      -2.5042392   -2.87134  14.7%  29.5    0s
*  717   518              20      -2.6308731   -2.74995  4.53%  25.0    0s
*  877   406              20      -2.6309198   -2.70560  2.84%  22.9    0s
*  891   406              22      -2.6403893   -2.70476  2.44%  22.8    0s
* 1084   234              21      -2.6404149   -2.66443  0.91%  19.6    0s
* 1092   234              18      -2.6405936   -2.66443  0.90%  19.5    0s
* 1093   234              19      -2.6408762   -2.66443  0.89%  19.5    0s
* 1094   234              19      -2.6408827   -2.66443  0.89%  19.4    0s
* 1299    95              18      -2.6413876   -2.65948  0.68%  16.7    0s
* 1306    95              16      -2.6415014   -2.65948  0.68%  16.7    0s
* 1310    95              19      -2.6418378   -2.65948  0.67%  16.6    0s
* 1520    19              19      -2.6419547   -2.64331  0.05%  14.6    0s
* 1530    19              20      -2.6419854   -2.64271  0.03%  14.6    0s
* 1554    19              20      -2.6420177   -2.64271  0.03%  14.4    0s
* 1555    19              20      -2.6420178   -2.64271  0.03%  14.4    0s
* 1638     3              19      -2.6420185   -2.64248  0.02%  13.7    0s

Cutting planes:
  RLT: 61
  BQP: 8
  PSD: 32

Explored 1666 nodes (22887 simplex iterations) in 0.60 seconds
Thread count was 32 (of 72 available processors)

Solution count 10: -2.64202 -2.64202 -2.64202 ... -2.64059

Optimal solution found (tolerance 1.00e-04)
Best objective -2.642018474473e+00, best bound -2.642056269823e+00, gap 0.0014%

User-callback calls 3614, time in user-callback 0.00 sec



objective value: -2.642018474473251
objective bound: -2.642056269823001
x_opt: [1.0, 0.0, 1.0, 0.0, 0.19458667470100535, 0.0, 1.0, 1.0, 0.4587078211817561, 0.0, 0.0, 0.0, 0.7878425597902516, 0.0, 0.454951809185609, 0.3181852876769705, 0.0, 0.0, 0.0, 0.0]
GUROBI solution time: 0.6019809246063232




